wmc_benchmarks/WMCBenchSingleMea/vqe_nativegates_ibm_qiskit_opt0_3.qasm.cnf
p cnf 198 784
c p weight 8 1 0
c p weight -8 1 0
c p weight 9 0 0
c p weight -9 1 0
c p weight 10 -1 0
c p weight -10 1 0
c p weight 12 6.12323399573676603586882014729198302312846062338790031898128063403419218957424163818359375E-17 0
c p weight -12 1 0
c p weight 13 1 0
c p weight -13 1 0
c p weight 14 -1 0
c p weight -14 1 0
c p weight 16 1 0
c p weight -16 1 0
c p weight 17 -2.4492935982947064143475280589167932092513842493551601275925122536136768758296966552734375E-16 0
c p weight -17 1 0
c p weight 18 -1 0
c p weight -18 1 0
c p weight 20 6.12323399573676603586882014729198302312846062338790031898128063403419218957424163818359375E-17 0
c p weight -20 1 0
c p weight 21 1 0
c p weight -21 1 0
c p weight 22 -1 0
c p weight -22 1 0
c p weight 24 -1 0
c p weight -24 1 0
c p weight 25 3.673940397442059375002259206809000622711899723162043418511757408850826323032379150390625E-16 0
c p weight -25 1 0
c p weight 26 -1 0
c p weight -26 1 0
c p weight 28 1 0
c p weight -28 1 0
c p weight 29 0 0
c p weight -29 1 0
c p weight 30 -1 0
c p weight -30 1 0
c p weight 32 6.12323399573676603586882014729198302312846062338790031898128063403419218957424163818359375E-17 0
c p weight -32 1 0
c p weight 33 1 0
c p weight -33 1 0
c p weight 34 -1 0
c p weight -34 1 0
c p weight 36 0.09133220464431802965155071660774410702288150787353515625 0
c p weight -36 1 0
c p weight 37 -0.995820480003704489035953884012997150421142578125 0
c p weight -37 1 0
c p weight 38 -1 0
c p weight -38 1 0
c p weight 40 6.12323399573676603586882014729198302312846062338790031898128063403419218957424163818359375E-17 0
c p weight -40 1 0
c p weight 41 1 0
c p weight -41 1 0
c p weight 42 -1 0
c p weight -42 1 0
c p weight 44 -1 0
c p weight -44 1 0
c p weight 45 3.673940397442059375002259206809000622711899723162043418511757408850826323032379150390625E-16 0
c p weight -45 1 0
c p weight 46 -1 0
c p weight -46 1 0
c p weight 48 1 0
c p weight -48 1 0
c p weight 49 0 0
c p weight -49 1 0
c p weight 50 -1 0
c p weight -50 1 0
c p weight 52 6.12323399573676603586882014729198302312846062338790031898128063403419218957424163818359375E-17 0
c p weight -52 1 0
c p weight 53 1 0
c p weight -53 1 0
c p weight 54 -1 0
c p weight -54 1 0
c p weight 56 -0.99731671521640141708786586605128832161426544189453125 0
c p weight -56 1 0
c p weight 57 0.07320771509866451365322603805907419882714748382568359375 0
c p weight -57 1 0
c p weight 58 -1 0
c p weight -58 1 0
c p weight 60 6.12323399573676603586882014729198302312846062338790031898128063403419218957424163818359375E-17 0
c p weight -60 1 0
c p weight 61 1 0
c p weight -61 1 0
c p weight 62 -1 0
c p weight -62 1 0
c p weight 64 -1 0
c p weight -64 1 0
c p weight 65 3.673940397442059375002259206809000622711899723162043418511757408850826323032379150390625E-16 0
c p weight -65 1 0
c p weight 66 -1 0
c p weight -66 1 0
c p weight 69 -1 0
c p weight -69 1 0
c p weight 72 -1 0
c p weight -72 1 0
c p weight 74 1 0
c p weight -74 1 0
c p weight 75 0 0
c p weight -75 1 0
c p weight 76 -1 0
c p weight -76 1 0
c p weight 78 6.12323399573676603586882014729198302312846062338790031898128063403419218957424163818359375E-17 0
c p weight -78 1 0
c p weight 79 1 0
c p weight -79 1 0
c p weight 80 -1 0
c p weight -80 1 0
c p weight 82 0.99999910330413344095035199643461965024471282958984375 0
c p weight -82 1 0
c p weight 83 -0.00133917546615468468877707675090960037778131663799285888671875 0
c p weight -83 1 0
c p weight 84 -1 0
c p weight -84 1 0
c p weight 86 6.12323399573676603586882014729198302312846062338790031898128063403419218957424163818359375E-17 0
c p weight -86 1 0
c p weight 87 1 0
c p weight -87 1 0
c p weight 88 -1 0
c p weight -88 1 0
c p weight 90 -1 0
c p weight -90 1 0
c p weight 91 3.673940397442059375002259206809000622711899723162043418511757408850826323032379150390625E-16 0
c p weight -91 1 0
c p weight 92 -1 0
c p weight -92 1 0
c p weight 94 1 0
c p weight -94 1 0
c p weight 95 0 0
c p weight -95 1 0
c p weight 96 -1 0
c p weight -96 1 0
c p weight 98 6.12323399573676603586882014729198302312846062338790031898128063403419218957424163818359375E-17 0
c p weight -98 1 0
c p weight 99 1 0
c p weight -99 1 0
c p weight 100 -1 0
c p weight -100 1 0
c p weight 102 0.264293834779085246022845012703328393399715423583984375 0
c p weight -102 1 0
c p weight 103 0.9644422060951944875029084869311191141605377197265625 0
c p weight -103 1 0
c p weight 104 -1 0
c p weight -104 1 0
c p weight 106 6.12323399573676603586882014729198302312846062338790031898128063403419218957424163818359375E-17 0
c p weight -106 1 0
c p weight 107 1 0
c p weight -107 1 0
c p weight 108 -1 0
c p weight -108 1 0
c p weight 110 -1 0
c p weight -110 1 0
c p weight 111 3.673940397442059375002259206809000622711899723162043418511757408850826323032379150390625E-16 0
c p weight -111 1 0
c p weight 112 -1 0
c p weight -112 1 0
c p weight 114 1 0
c p weight -114 1 0
c p weight 115 0 0
c p weight -115 1 0
c p weight 116 -1 0
c p weight -116 1 0
c p weight 118 6.12323399573676603586882014729198302312846062338790031898128063403419218957424163818359375E-17 0
c p weight -118 1 0
c p weight 119 1 0
c p weight -119 1 0
c p weight 120 -1 0
c p weight -120 1 0
c p weight 122 -0.1326139505299075704858324797896784730255603790283203125 0
c p weight -122 1 0
c p weight 123 0.99116776588267396785880691822967492043972015380859375 0
c p weight -123 1 0
c p weight 124 -1 0
c p weight -124 1 0
c p weight 126 6.12323399573676603586882014729198302312846062338790031898128063403419218957424163818359375E-17 0
c p weight -126 1 0
c p weight 127 1 0
c p weight -127 1 0
c p weight 128 -1 0
c p weight -128 1 0
c p weight 130 -1 0
c p weight -130 1 0
c p weight 131 3.673940397442059375002259206809000622711899723162043418511757408850826323032379150390625E-16 0
c p weight -131 1 0
c p weight 132 -1 0
c p weight -132 1 0
c p weight 135 -1 0
c p weight -135 1 0
c p weight 138 -1 0
c p weight -138 1 0
c p weight 140 1 0
c p weight -140 1 0
c p weight 141 0 0
c p weight -141 1 0
c p weight 142 -1 0
c p weight -142 1 0
c p weight 144 6.12323399573676603586882014729198302312846062338790031898128063403419218957424163818359375E-17 0
c p weight -144 1 0
c p weight 145 1 0
c p weight -145 1 0
c p weight 146 -1 0
c p weight -146 1 0
c p weight 148 1 0
c p weight -148 1 0
c p weight 149 0 0
c p weight -149 1 0
c p weight 150 -1 0
c p weight -150 1 0
c p weight 152 6.12323399573676603586882014729198302312846062338790031898128063403419218957424163818359375E-17 0
c p weight -152 1 0
c p weight 153 1 0
c p weight -153 1 0
c p weight 154 -1 0
c p weight -154 1 0
c p weight 156 -1 0
c p weight -156 1 0
c p weight 157 3.673940397442059375002259206809000622711899723162043418511757408850826323032379150390625E-16 0
c p weight -157 1 0
c p weight 158 -1 0
c p weight -158 1 0
c p weight 160 1 0
c p weight -160 1 0
c p weight 161 0 0
c p weight -161 1 0
c p weight 162 -1 0
c p weight -162 1 0
c p weight 164 6.12323399573676603586882014729198302312846062338790031898128063403419218957424163818359375E-17 0
c p weight -164 1 0
c p weight 165 1 0
c p weight -165 1 0
c p weight 166 -1 0
c p weight -166 1 0
c p weight 168 0.7679573758570643615684048199909739196300506591796875 0
c p weight -168 1 0
c p weight 169 0.64050095149557095819403684799908660352230072021484375 0
c p weight -169 1 0
c p weight 170 -1 0
c p weight -170 1 0
c p weight 172 6.12323399573676603586882014729198302312846062338790031898128063403419218957424163818359375E-17 0
c p weight -172 1 0
c p weight 173 1 0
c p weight -173 1 0
c p weight 174 -1 0
c p weight -174 1 0
c p weight 176 -1 0
c p weight -176 1 0
c p weight 177 3.673940397442059375002259206809000622711899723162043418511757408850826323032379150390625E-16 0
c p weight -177 1 0
c p weight 178 -1 0
c p weight -178 1 0
c p weight 180 1 0
c p weight -180 1 0
c p weight 181 0 0
c p weight -181 1 0
c p weight 182 -1 0
c p weight -182 1 0
c p weight 184 6.12323399573676603586882014729198302312846062338790031898128063403419218957424163818359375E-17 0
c p weight -184 1 0
c p weight 185 1 0
c p weight -185 1 0
c p weight 186 -1 0
c p weight -186 1 0
c p weight 188 -0.99989946423220243953977615092298947274684906005859375 0
c p weight -188 1 0
c p weight 189 0.01417961311723774271709164196408892166800796985626220703125 0
c p weight -189 1 0
c p weight 190 -1 0
c p weight -190 1 0
c p weight 192 6.12323399573676603586882014729198302312846062338790031898128063403419218957424163818359375E-17 0
c p weight -192 1 0
c p weight 193 1 0
c p weight -193 1 0
c p weight 194 -1 0
c p weight -194 1 0
c p weight 196 -1 0
c p weight -196 1 0
c p weight 197 3.673940397442059375002259206809000622711899723162043418511757408850826323032379150390625E-16 0
c p weight -197 1 0
c p weight 198 -1 0
c p weight -198 1 0
-5 0
-3 0
-1 0
7 1 -2 0
-7 1 2 0
-8 1 0
7 -8 -2 0
-7 -8 2 0
7 8 -1 2 0
-7 8 -1 -2 0
-9 1 0
7 -9 2 0
-7 -9 -2 0
7 9 -1 -2 0
-7 9 -1 2 0
-10 1 0
-10 2 0
-10 -7 0
10 7 -1 -2 0
11 -1 7 0
-11 1 7 0
-12 7 0
11 -12 -1 0
-11 -12 1 0
11 12 1 -7 0
-11 12 -1 -7 0
-13 7 0
11 -13 1 0
-11 -13 -1 0
11 13 -1 -7 0
-11 13 1 -7 0
-14 11 0
-14 7 0
-14 -1 0
14 -11 1 -7 0
15 11 -7 0
-15 11 7 0
-16 11 0
15 -16 -7 0
-15 -16 7 0
15 16 -11 7 0
-15 16 -11 -7 0
-17 11 0
15 -17 7 0
-15 -17 -7 0
15 17 -11 -7 0
-15 17 -11 7 0
-18 11 0
-18 7 0
-18 -15 0
18 15 -11 -7 0
19 -11 15 0
-19 11 15 0
-20 15 0
19 -20 -11 0
-19 -20 11 0
19 20 11 -15 0
-19 20 -11 -15 0
-21 15 0
19 -21 11 0
-19 -21 -11 0
19 21 -11 -15 0
-19 21 11 -15 0
-22 19 0
-22 15 0
-22 -11 0
22 -19 11 -15 0
23 19 -15 0
-23 19 15 0
-24 19 0
23 -24 -15 0
-23 -24 15 0
23 24 -19 15 0
-23 24 -19 -15 0
-25 19 0
23 -25 15 0
-23 -25 -15 0
23 25 -19 -15 0
-23 25 -19 15 0
-26 19 0
-26 15 0
-26 -23 0
26 23 -19 -15 0
27 3 -4 0
-27 3 4 0
-28 3 0
27 -28 -4 0
-27 -28 4 0
27 28 -3 4 0
-27 28 -3 -4 0
-29 3 0
27 -29 4 0
-27 -29 -4 0
27 29 -3 -4 0
-27 29 -3 4 0
-30 3 0
-30 4 0
-30 -27 0
30 27 -3 -4 0
31 -3 27 0
-31 3 27 0
-32 27 0
31 -32 -3 0
-31 -32 3 0
31 32 3 -27 0
-31 32 -3 -27 0
-33 27 0
31 -33 3 0
-31 -33 -3 0
31 33 -3 -27 0
-31 33 3 -27 0
-34 31 0
-34 27 0
-34 -3 0
34 -31 3 -27 0
35 31 -27 0
-35 31 27 0
-36 31 0
35 -36 -27 0
-35 -36 27 0
35 36 -31 27 0
-35 36 -31 -27 0
-37 31 0
35 -37 27 0
-35 -37 -27 0
35 37 -31 -27 0
-35 37 -31 27 0
-38 31 0
-38 27 0
-38 -35 0
38 35 -31 -27 0
39 -31 35 0
-39 31 35 0
-40 35 0
39 -40 -31 0
-39 -40 31 0
39 40 31 -35 0
-39 40 -31 -35 0
-41 35 0
39 -41 31 0
-39 -41 -31 0
39 41 -31 -35 0
-39 41 31 -35 0
-42 39 0
-42 35 0
-42 -31 0
42 -39 31 -35 0
43 39 -35 0
-43 39 35 0
-44 39 0
43 -44 -35 0
-43 -44 35 0
43 44 -39 35 0
-43 44 -39 -35 0
-45 39 0
43 -45 35 0
-43 -45 -35 0
43 45 -39 -35 0
-43 45 -39 35 0
-46 39 0
-46 35 0
-46 -43 0
46 43 -39 -35 0
47 5 -6 0
-47 5 6 0
-48 5 0
47 -48 -6 0
-47 -48 6 0
47 48 -5 6 0
-47 48 -5 -6 0
-49 5 0
47 -49 6 0
-47 -49 -6 0
47 49 -5 -6 0
-47 49 -5 6 0
-50 5 0
-50 6 0
-50 -47 0
50 47 -5 -6 0
51 -5 47 0
-51 5 47 0
-52 47 0
51 -52 -5 0
-51 -52 5 0
51 52 5 -47 0
-51 52 -5 -47 0
-53 47 0
51 -53 5 0
-51 -53 -5 0
51 53 -5 -47 0
-51 53 5 -47 0
-54 51 0
-54 47 0
-54 -5 0
54 -51 5 -47 0
55 51 -47 0
-55 51 47 0
-56 51 0
55 -56 -47 0
-55 -56 47 0
55 56 -51 47 0
-55 56 -51 -47 0
-57 51 0
55 -57 47 0
-55 -57 -47 0
55 57 -51 -47 0
-55 57 -51 47 0
-58 51 0
-58 47 0
-58 -55 0
58 55 -51 -47 0
59 -51 55 0
-59 51 55 0
-60 55 0
59 -60 -51 0
-59 -60 51 0
59 60 51 -55 0
-59 60 -51 -55 0
-61 55 0
59 -61 51 0
-59 -61 -51 0
59 61 -51 -55 0
-59 61 51 -55 0
-62 59 0
-62 55 0
-62 -51 0
62 -59 51 -55 0
63 59 -55 0
-63 59 55 0
-64 59 0
63 -64 -55 0
-63 -64 55 0
63 64 -59 55 0
-63 64 -59 -55 0
-65 59 0
63 -65 55 0
-63 -65 -55 0
63 65 -59 -55 0
-63 65 -59 55 0
-66 59 0
-66 55 0
-66 -63 0
66 63 -59 -55 0
67 39 -59 0
67 -39 59 0
-67 39 59 0
-67 -39 -59 0
68 43 -63 0
68 -43 63 0
-68 43 63 0
-68 -43 -63 0
-69 39 0
-69 63 0
-69 59 -43 0
-69 -59 43 0
69 -39 59 43 -63 0
69 -39 -59 -43 -63 0
70 19 -39 0
70 -19 39 0
-70 19 39 0
-70 -19 -39 0
71 23 -68 0
71 -23 68 0
-71 23 68 0
-71 -23 -68 0
-72 19 0
-72 68 0
-72 39 -23 0
-72 -39 23 0
72 -19 39 23 -68 0
72 -19 -39 -23 -68 0
73 19 -71 0
-73 19 71 0
-74 19 0
73 -74 -71 0
-73 -74 71 0
73 74 -19 71 0
-73 74 -19 -71 0
-75 19 0
73 -75 71 0
-73 -75 -71 0
73 75 -19 -71 0
-73 75 -19 71 0
-76 19 0
-76 71 0
-76 -73 0
76 73 -19 -71 0
77 -19 73 0
-77 19 73 0
-78 73 0
77 -78 -19 0
-77 -78 19 0
77 78 19 -73 0
-77 78 -19 -73 0
-79 73 0
77 -79 19 0
-77 -79 -19 0
77 79 -19 -73 0
-77 79 19 -73 0
-80 77 0
-80 73 0
-80 -19 0
80 -77 19 -73 0
81 77 -73 0
-81 77 73 0
-82 77 0
81 -82 -73 0
-81 -82 73 0
81 82 -77 73 0
-81 82 -77 -73 0
-83 77 0
81 -83 73 0
-81 -83 -73 0
81 83 -77 -73 0
-81 83 -77 73 0
-84 77 0
-84 73 0
-84 -81 0
84 81 -77 -73 0
85 -77 81 0
-85 77 81 0
-86 81 0
85 -86 -77 0
-85 -86 77 0
85 86 77 -81 0
-85 86 -77 -81 0
-87 81 0
85 -87 77 0
-85 -87 -77 0
85 87 -77 -81 0
-85 87 77 -81 0
-88 85 0
-88 81 0
-88 -77 0
88 -85 77 -81 0
89 85 -81 0
-89 85 81 0
-90 85 0
89 -90 -81 0
-89 -90 81 0
89 90 -85 81 0
-89 90 -85 -81 0
-91 85 0
89 -91 81 0
-89 -91 -81 0
89 91 -85 -81 0
-89 91 -85 81 0
-92 85 0
-92 81 0
-92 -89 0
92 89 -85 -81 0
93 70 -68 0
-93 70 68 0
-94 70 0
93 -94 -68 0
-93 -94 68 0
93 94 -70 68 0
-93 94 -70 -68 0
-95 70 0
93 -95 68 0
-93 -95 -68 0
93 95 -70 -68 0
-93 95 -70 68 0
-96 70 0
-96 68 0
-96 -93 0
96 93 -70 -68 0
97 -70 93 0
-97 70 93 0
-98 93 0
97 -98 -70 0
-97 -98 70 0
97 98 70 -93 0
-97 98 -70 -93 0
-99 93 0
97 -99 70 0
-97 -99 -70 0
97 99 -70 -93 0
-97 99 70 -93 0
-100 97 0
-100 93 0
-100 -70 0
100 -97 70 -93 0
101 97 -93 0
-101 97 93 0
-102 97 0
101 -102 -93 0
-101 -102 93 0
101 102 -97 93 0
-101 102 -97 -93 0
-103 97 0
101 -103 93 0
-101 -103 -93 0
101 103 -97 -93 0
-101 103 -97 93 0
-104 97 0
-104 93 0
-104 -101 0
104 101 -97 -93 0
105 -97 101 0
-105 97 101 0
-106 101 0
105 -106 -97 0
-105 -106 97 0
105 106 97 -101 0
-105 106 -97 -101 0
-107 101 0
105 -107 97 0
-105 -107 -97 0
105 107 -97 -101 0
-105 107 97 -101 0
-108 105 0
-108 101 0
-108 -97 0
108 -105 97 -101 0
109 105 -101 0
-109 105 101 0
-110 105 0
109 -110 -101 0
-109 -110 101 0
109 110 -105 101 0
-109 110 -105 -101 0
-111 105 0
109 -111 101 0
-109 -111 -101 0
109 111 -105 -101 0
-109 111 -105 101 0
-112 105 0
-112 101 0
-112 -109 0
112 109 -105 -101 0
113 67 -63 0
-113 67 63 0
-114 67 0
113 -114 -63 0
-113 -114 63 0
113 114 -67 63 0
-113 114 -67 -63 0
-115 67 0
113 -115 63 0
-113 -115 -63 0
113 115 -67 -63 0
-113 115 -67 63 0
-116 67 0
-116 63 0
-116 -113 0
116 113 -67 -63 0
117 -67 113 0
-117 67 113 0
-118 113 0
117 -118 -67 0
-117 -118 67 0
117 118 67 -113 0
-117 118 -67 -113 0
-119 113 0
117 -119 67 0
-117 -119 -67 0
117 119 -67 -113 0
-117 119 67 -113 0
-120 117 0
-120 113 0
-120 -67 0
120 -117 67 -113 0
121 117 -113 0
-121 117 113 0
-122 117 0
121 -122 -113 0
-121 -122 113 0
121 122 -117 113 0
-121 122 -117 -113 0
-123 117 0
121 -123 113 0
-121 -123 -113 0
121 123 -117 -113 0
-121 123 -117 113 0
-124 117 0
-124 113 0
-124 -121 0
124 121 -117 -113 0
125 -117 121 0
-125 117 121 0
-126 121 0
125 -126 -117 0
-125 -126 117 0
125 126 117 -121 0
-125 126 -117 -121 0
-127 121 0
125 -127 117 0
-125 -127 -117 0
125 127 -117 -121 0
-125 127 117 -121 0
-128 125 0
-128 121 0
-128 -117 0
128 -125 117 -121 0
129 125 -121 0
-129 125 121 0
-130 125 0
129 -130 -121 0
-129 -130 121 0
129 130 -125 121 0
-129 130 -125 -121 0
-131 125 0
129 -131 121 0
-129 -131 -121 0
129 131 -125 -121 0
-129 131 -125 121 0
-132 125 0
-132 121 0
-132 -129 0
132 129 -125 -121 0
133 105 -125 0
133 -105 125 0
-133 105 125 0
-133 -105 -125 0
134 109 -129 0
134 -109 129 0
-134 109 129 0
-134 -109 -129 0
-135 105 0
-135 129 0
-135 125 -109 0
-135 -125 109 0
135 -105 125 109 -129 0
135 -105 -125 -109 -129 0
136 85 -105 0
136 -85 105 0
-136 85 105 0
-136 -85 -105 0
137 89 -134 0
137 -89 134 0
-137 89 134 0
-137 -89 -134 0
-138 85 0
-138 134 0
-138 105 -89 0
-138 -105 89 0
138 -85 105 89 -134 0
138 -85 -105 -89 -134 0
139 85 -137 0
-139 85 137 0
-140 85 0
139 -140 -137 0
-139 -140 137 0
139 140 -85 137 0
-139 140 -85 -137 0
-141 85 0
139 -141 137 0
-139 -141 -137 0
139 141 -85 -137 0
-139 141 -85 137 0
-142 85 0
-142 137 0
-142 -139 0
142 139 -85 -137 0
143 -85 139 0
-143 85 139 0
-144 139 0
143 -144 -85 0
-143 -144 85 0
143 144 85 -139 0
-143 144 -85 -139 0
-145 139 0
143 -145 85 0
-143 -145 -85 0
143 145 -85 -139 0
-143 145 85 -139 0
-146 143 0
-146 139 0
-146 -85 0
146 -143 85 -139 0
147 143 -139 0
-147 143 139 0
-148 143 0
147 -148 -139 0
-147 -148 139 0
147 148 -143 139 0
-147 148 -143 -139 0
-149 143 0
147 -149 139 0
-147 -149 -139 0
147 149 -143 -139 0
-147 149 -143 139 0
-150 143 0
-150 139 0
-150 -147 0
150 147 -143 -139 0
151 -143 147 0
-151 143 147 0
-152 147 0
151 -152 -143 0
-151 -152 143 0
151 152 143 -147 0
-151 152 -143 -147 0
-153 147 0
151 -153 143 0
-151 -153 -143 0
151 153 -143 -147 0
-151 153 143 -147 0
-154 151 0
-154 147 0
-154 -143 0
154 -151 143 -147 0
155 151 -147 0
-155 151 147 0
-156 151 0
155 -156 -147 0
-155 -156 147 0
155 156 -151 147 0
-155 156 -151 -147 0
-157 151 0
155 -157 147 0
-155 -157 -147 0
155 157 -151 -147 0
-155 157 -151 147 0
-158 151 0
-158 147 0
-158 -155 0
158 155 -151 -147 0
159 136 -134 0
-159 136 134 0
-160 136 0
159 -160 -134 0
-159 -160 134 0
159 160 -136 134 0
-159 160 -136 -134 0
-161 136 0
159 -161 134 0
-159 -161 -134 0
159 161 -136 -134 0
-159 161 -136 134 0
-162 136 0
-162 134 0
-162 -159 0
162 159 -136 -134 0
163 -136 159 0
-163 136 159 0
-164 159 0
163 -164 -136 0
-163 -164 136 0
163 164 136 -159 0
-163 164 -136 -159 0
-165 159 0
163 -165 136 0
-163 -165 -136 0
163 165 -136 -159 0
-163 165 136 -159 0
-166 163 0
-166 159 0
-166 -136 0
166 -163 136 -159 0
167 163 -159 0
-167 163 159 0
-168 163 0
167 -168 -159 0
-167 -168 159 0
167 168 -163 159 0
-167 168 -163 -159 0
-169 163 0
167 -169 159 0
-167 -169 -159 0
167 169 -163 -159 0
-167 169 -163 159 0
-170 163 0
-170 159 0
-170 -167 0
170 167 -163 -159 0
171 -163 167 0
-171 163 167 0
-172 167 0
171 -172 -163 0
-171 -172 163 0
171 172 163 -167 0
-171 172 -163 -167 0
-173 167 0
171 -173 163 0
-171 -173 -163 0
171 173 -163 -167 0
-171 173 163 -167 0
-174 171 0
-174 167 0
-174 -163 0
174 -171 163 -167 0
175 171 -167 0
-175 171 167 0
-176 171 0
175 -176 -167 0
-175 -176 167 0
175 176 -171 167 0
-175 176 -171 -167 0
-177 171 0
175 -177 167 0
-175 -177 -167 0
175 177 -171 -167 0
-175 177 -171 167 0
-178 171 0
-178 167 0
-178 -175 0
178 175 -171 -167 0
179 133 -129 0
-179 133 129 0
-180 133 0
179 -180 -129 0
-179 -180 129 0
179 180 -133 129 0
-179 180 -133 -129 0
-181 133 0
179 -181 129 0
-179 -181 -129 0
179 181 -133 -129 0
-179 181 -133 129 0
-182 133 0
-182 129 0
-182 -179 0
182 179 -133 -129 0
183 -133 179 0
-183 133 179 0
-184 179 0
183 -184 -133 0
-183 -184 133 0
183 184 133 -179 0
-183 184 -133 -179 0
-185 179 0
183 -185 133 0
-183 -185 -133 0
183 185 -133 -179 0
-183 185 133 -179 0
-186 183 0
-186 179 0
-186 -133 0
186 -183 133 -179 0
187 183 -179 0
-187 183 179 0
-188 183 0
187 -188 -179 0
-187 -188 179 0
187 188 -183 179 0
-187 188 -183 -179 0
-189 183 0
187 -189 179 0
-187 -189 -179 0
187 189 -183 -179 0
-187 189 -183 179 0
-190 183 0
-190 179 0
-190 -187 0
190 187 -183 -179 0
191 -183 187 0
-191 183 187 0
-192 187 0
191 -192 -183 0
-191 -192 183 0
191 192 183 -187 0
-191 192 -183 -187 0
-193 187 0
191 -193 183 0
-191 -193 -183 0
191 193 -183 -187 0
-191 193 183 -187 0
-194 191 0
-194 187 0
-194 -183 0
194 -191 183 -187 0
195 191 -187 0
-195 191 187 0
-196 191 0
195 -196 -187 0
-195 -196 187 0
195 196 -191 187 0
-195 196 -191 -187 0
-197 191 0
195 -197 187 0
-195 -197 -187 0
195 197 -191 -187 0
-195 197 -191 187 0
-198 191 0
-198 187 0
-198 -195 0
198 195 -191 -187 0
-151 0
-171 0
-175 0
-191 0
-195 0
